50
152
123
124
128
120
118
157
144
158
164
127
116
157
122
120
130
152
135
146
147
148
145
129
164
140
143
118
148
139
135
147
122
147
119
162
121
158
133
138
135
127
142
143
122
164
157
143
151
127
132
